<number of tasks>
50

<cycle time>
1000

<order strength>
0.203


<task times>
1 507
2 193
3 205
4 49
5 218
6 142
7 441
8 76
9 463
10 120
11 413
12 77
13 264
14 118
15 147
16 69
17 344
18 205
19 284
20 361
21 86
22 522
23 121
24 280
25 89
26 317
27 233
28 161
29 123
30 228
31 54
32 44
33 250
34 186
35 45
36 535
37 335
38 516
39 530
40 243
41 346
42 236
43 329
44 286
45 56
46 348
47 202
48 85
49 545
50 267

<precedence relations>
1,13
2,9
2,11
5,40
6,8
6,10
6,14
7,12
9,35
10,16
10,20
10,38
12,17
12,19
13,15
13,18
14,16
14,21
15,25
16,22
18,31
19,24
20,48
21,23
22,27
22,29
22,30
24,30
24,31
24,47
25,26
25,28
25,32
27,40
28,33
29,37
30,35
31,36
31,39
32,34
32,38
34,42
35,41
35,49
36,42
36,45
37,45
37,46
38,44
39,43
42,50
44,47
46,48
46,49

<end>
